<number of tasks>
70

<cycle time>
320

<task times>
1 17
2 66
3 54
4 52
5 6
6 88
7 21
8 128
9 68
10 70
11 85
12 21
13 134
14 135
15 94
16 90
17 50
18 143
19 19
20 54
21 50
22 40
23 73
24 12
25 152
26 42
27 45
28 74
29 26
30 11
31 31
32 50
33 102
34 46
35 35
36 40
37 2
38 1
39 3
40 13
41 16
42 25
43 21
44 43
45 30
46 83
47 89
48 56
49 59
50 43
51 11
52 26
53 44
54 121
55 38
56 68
57 22
58 7
59 16
60 32
61 25
62 27
63 156
64 28
65 15
66 26
67 18
68 72
69 23
70 27

<precedence relations>
1,2
1,41
1,69
1,70
2,3
3,4
3,68
4,6
4,7
5,6
5,24
5,30
6,8
7,8
8,12
9,10
10,11
11,12
12,13
12,14
13,23
14,23
15,16
16,17
16,18
17,19
18,19
19,20
19,22
19,57
20,21
21,23
22,23
23,25
23,31
23,33
24,25
25,26
25,27
25,28
25,29
26,35
27,35
28,35
29,35
30,31
31,32
32,35
33,34
34,35
35,36
35,44
35,48
35,51
35,53
35,56
35,60
35,61
35,62
36,37
37,38
38,39
39,40
40,42
41,42
42,43
43,50
44,45
45,46
46,47
47,50
48,49
49,50
51,52
52,54
53,54
54,55
57,58
58,59
59,60
61,65
62,63
63,64
64,65
64,66
64,67

<setup times forward>
1,9:15
1,10:15
1,11:5
1,16:15
1,17:5
1,18:5
1,19:5
1,20:5
1,21:5
1,22:5
1,30:8
1,57:5
1,58:4
1,59:8
1,69:4
1,70:5
2,9:15
2,10:15
2,11:5
2,16:15
2,17:5
2,18:5
2,19:5
2,20:5
2,21:5
2,22:5
2,30:8
2,57:5
2,58:4
2,59:8
2,69:4
2,70:5
3,9:15
3,10:15
3,11:5
3,16:15
3,17:5
3,18:5
3,19:5
3,20:5
3,21:5
3,22:5
3,30:8
3,57:5
3,58:4
3,59:8
3,68:8
3,69:4
3,70:5
4,6:15
4,7:5
4,9:15
4,10:15
4,11:5
4,16:15
4,17:5
4,18:5
4,19:5
4,20:5
4,21:5
4,22:5
4,30:8
4,57:5
4,58:4
4,59:8
4,68:8
4,69:4
4,70:5
5,6:15
5,7:5
5,9:15
5,10:15
5,11:5
5,16:15
5,17:5
5,18:5
5,19:5
5,20:5
5,21:5
5,22:5
5,30:8
5,57:5
5,58:4
5,59:8
5,68:8
5,69:4
5,70:5
6,7:20
6,8:20
6,11:10
6,15:15
6,17:10
6,18:20
6,19:10
6,20:10
6,21:10
6,22:10
6,24:15
6,30:23
6,41:15
6,57:10
6,58:11
6,59:23
6,68:23
6,69:11
6,70:20
7,5:5
7,6:20
7,9:20
7,10:20
7,11:10
7,15:5
7,16:20
7,17:10
7,19:10
7,20:10
7,21:10
7,22:10
7,24:5
7,30:3
7,41:5
7,57:10
7,58:9
7,59:3
7,68:3
7,69:9
8,9:20
8,10:20
8,11:10
8,12:9
8,15:5
8,16:20
8,17:10
8,19:10
8,20:10
8,21:10
8,22:10
8,24:5
8,30:3
8,41:5
8,57:10
8,58:9
8,59:3
8,68:3
8,69:9
9,1:15
9,2:15
9,3:15
9,4:15
9,5:15
9,7:20
9,8:20
9,15:15
9,17:10
9,18:20
9,19:10
9,20:10
9,21:10
9,22:10
9,24:15
9,30:23
9,41:15
9,57:10
9,58:11
9,59:23
9,68:23
9,69:11
9,70:20
10,1:15
10,2:15
10,3:15
10,4:15
10,5:15
10,7:20
10,8:20
10,11:10
10,15:15
10,17:10
10,18:20
10,19:10
10,20:10
10,21:10
10,22:10
10,24:15
10,30:23
10,41:15
10,57:10
10,58:11
10,59:23
10,68:23
10,69:11
10,70:20
11,1:5
11,2:5
11,3:5
11,4:5
11,5:5
11,6:10
11,7:10
11,8:10
11,12:1
11,15:5
11,16:10
11,18:10
11,24:5
11,30:13
11,41:5
11,58:1
11,59:13
11,68:13
11,69:1
11,70:10
12,15:4
12,16:11
12,17:1
12,18:9
12,19:1
12,20:1
12,21:1
12,22:1
12,24:4
12,30:12
12,41:4
12,57:1
12,59:12
12,68:12
12,70:9
13,15:4
13,16:11
13,17:1
13,18:9
13,19:1
13,20:1
13,21:1
13,22:1
13,23:12
13,24:4
13,30:12
13,41:4
13,57:1
13,59:12
13,68:12
13,70:9
14,15:4
14,16:11
14,17:1
14,18:9
14,19:1
14,20:1
14,21:1
14,22:1
14,23:12
14,24:4
14,30:12
14,41:4
14,57:1
14,59:12
14,68:12
14,70:9
15,6:15
15,7:5
15,8:5
15,9:15
15,10:15
15,11:5
15,12:4
15,13:4
15,14:4
15,16:15
15,30:8
15,68:8
15,69:4
15,70:5
16,1:15
16,2:15
16,3:15
16,4:15
16,5:15
16,7:20
16,8:20
16,11:10
16,12:11
16,13:11
16,14:11
16,17:10
16,18:20
16,24:15
16,30:23
16,41:15
16,68:23
16,69:11
16,70:20
17,1:5
17,2:5
17,3:5
17,4:5
17,5:5
17,6:10
17,7:10
17,8:10
17,9:10
17,10:10
17,12:1
17,13:1
17,14:1
17,18:10
17,24:5
17,30:13
17,41:5
17,68:13
17,69:1
17,70:10
18,1:5
18,2:5
18,3:5
18,4:5
18,5:5
18,6:20
18,9:20
18,10:20
18,11:10
18,12:9
18,13:9
18,14:9
18,17:10
18,19:10
18,24:5
18,30:3
18,41:5
18,68:3
18,69:9
19,1:5
19,2:5
19,3:5
19,4:5
19,5:5
19,6:10
19,7:10
19,8:10
19,9:10
19,10:10
19,12:1
19,13:1
19,14:1
19,24:5
19,30:13
19,41:5
19,68:13
19,69:1
19,70:10
20,1:5
20,2:5
20,3:5
20,4:5
20,5:5
20,6:10
20,7:10
20,8:10
20,9:10
20,10:10
20,12:1
20,13:1
20,14:1
20,24:5
20,30:13
20,41:5
20,58:1
20,59:13
20,68:13
20,69:1
20,70:10
21,1:5
21,2:5
21,3:5
21,4:5
21,5:5
21,6:10
21,7:10
21,8:10
21,9:10
21,10:10
21,12:1
21,13:1
21,14:1
21,23:13
21,24:5
21,30:13
21,41:5
21,58:1
21,59:13
21,68:13
21,69:1
21,70:10
22,1:5
22,2:5
22,3:5
22,4:5
22,5:5
22,6:10
22,7:10
22,8:10
22,9:10
22,10:10
22,12:1
22,13:1
22,14:1
22,23:13
22,24:5
22,30:13
22,41:5
22,58:1
22,59:13
22,68:13
22,69:1
22,70:10
23,24:8
23,25:8
23,31:8
23,41:8
23,57:13
23,58:12
23,69:12
23,70:3
24,6:15
24,7:5
24,8:5
24,9:15
24,10:15
24,11:5
24,12:4
24,13:4
24,14:4
24,16:15
24,17:5
24,18:5
24,19:5
24,20:5
24,21:5
24,22:5
24,23:8
24,30:8
24,33:8
24,34:8
24,57:5
24,58:4
24,59:8
24,68:8
24,69:4
24,70:5
25,28:13
25,29:13
25,30:8
25,33:8
25,34:8
25,57:5
25,58:4
25,59:8
25,68:8
25,69:4
25,70:5
26,28:13
26,29:13
26,30:8
26,33:8
26,34:8
26,35:13
26,57:5
26,58:4
26,59:8
26,68:8
26,69:4
26,70:5
27,28:13
27,29:13
27,30:8
27,33:8
27,34:8
27,35:13
27,57:5
27,58:4
27,59:8
27,68:8
27,69:4
27,70:5
28,26:13
28,27:13
28,30:5
28,31:13
28,32:13
28,33:5
28,34:5
28,41:13
28,57:18
28,58:17
28,59:5
28,68:5
28,69:17
28,70:8
29,26:13
29,27:13
29,30:5
29,31:13
29,32:13
29,33:5
29,34:5
29,41:13
29,57:18
29,58:17
29,59:5
29,68:5
29,69:17
29,70:8
30,1:8
30,2:8
30,3:8
30,4:8
30,6:23
30,7:3
30,8:3
30,9:23
30,10:23
30,11:13
30,12:12
30,13:12
30,14:12
30,15:8
30,16:23
30,17:13
30,18:3
30,19:13
30,20:13
30,21:13
30,22:13
30,24:8
30,25:8
30,26:8
30,27:8
30,28:5
30,29:5
30,31:8
30,41:8
30,57:13
30,58:12
30,69:12
30,70:3
31,28:13
31,29:13
31,33:8
31,34:8
31,57:5
31,58:4
31,59:8
31,68:8
31,69:4
31,70:5
32,28:13
32,29:13
32,33:8
32,34:8
32,35:13
32,57:5
32,58:4
32,59:8
32,68:8
32,69:4
32,70:5
33,24:8
33,25:8
33,26:8
33,27:8
33,28:5
33,29:5
33,31:8
33,32:8
33,41:8
33,57:13
33,58:12
33,69:12
33,70:3
34,24:8
34,25:8
34,26:8
34,27:8
34,28:5
34,29:5
34,31:8
34,32:8
34,35:5
34,41:8
34,57:13
34,58:12
34,69:12
34,70:3
35,36:21
35,41:13
35,48:8
35,51:8
35,53:8
35,56:8
35,57:18
35,58:17
35,59:5
35,60:21
35,61:8
35,68:5
35,69:17
35,70:8
36,41:8
36,44:21
36,45:21
36,46:21
36,48:13
36,49:25
36,51:13
36,52:13
36,53:13
36,54:25
36,55:25
36,56:13
36,57:3
36,58:4
36,59:16
36,61:13
36,62:21
36,64:13
36,65:25
36,66:25
36,67:25
36,68:16
36,69:4
36,70:13
37,41:8
37,44:21
37,45:21
37,46:21
37,48:13
37,49:25
37,51:13
37,52:13
37,53:13
37,54:25
37,55:25
37,56:13
37,57:3
37,58:4
37,59:16
37,61:13
37,62:21
37,64:13
37,65:25
37,66:25
37,67:25
37,68:16
37,69:4
37,70:13
38,39:13
38,41:8
38,44:21
38,45:21
38,46:21
38,48:13
38,49:25
38,51:13
38,52:13
38,53:13
38,54:25
38,55:25
38,56:13
38,57:3
38,58:4
38,59:16
38,61:13
38,62:21
38,64:13
38,65:25
38,66:25
38,67:25
38,68:16
38,69:4
38,70:13
39,41:5
39,44:8
39,45:8
39,46:8
39,47:13
39,49:12
39,54:12
39,55:12
39,57:10
39,58:9
39,59:3
39,60:13
39,62:8
39,63:13
39,65:12
39,66:12
39,67:12
39,68:3
39,69:9
40,41:5
40,44:8
40,45:8
40,46:8
40,47:13
40,49:12
40,54:12
40,55:12
40,57:10
40,58:9
40,59:3
40,60:13
40,62:8
40,63:13
40,65:12
40,66:12
40,67:12
40,68:3
40,69:9
41,6:15
41,7:5
41,8:5
41,9:15
41,10:15
41,11:5
41,12:4
41,13:4
41,14:4
41,16:15
41,17:5
41,18:5
41,19:5
41,20:5
41,21:5
41,22:5
41,23:8
41,28:13
41,29:13
41,30:8
41,33:8
41,34:8
41,35:13
41,36:8
41,37:8
41,38:8
41,39:5
41,40:5
41,42:5
41,44:13
41,45:13
41,46:13
41,47:8
41,48:5
41,49:17
41,51:5
41,52:5
41,53:5
41,54:17
41,55:17
41,56:5
41,57:5
41,58:4
41,59:8
41,60:8
41,61:5
41,62:13
41,63:8
41,64:5
41,65:17
41,66:17
41,67:17
41,68:8
41,69:4
41,70:5
42,44:8
42,45:8
42,46:8
42,47:13
42,49:12
42,54:12
42,55:12
42,57:10
42,58:9
42,59:3
42,60:13
42,62:8
42,63:13
42,65:12
42,66:12
42,67:12
42,68:3
42,69:9
43,44:8
43,45:8
43,46:8
43,47:13
43,49:12
43,50:12
43,54:12
43,55:12
43,57:10
43,58:9
43,59:3
43,60:13
43,62:8
43,63:13
43,65:12
43,66:12
43,67:12
43,68:3
43,69:9
44,36:21
44,37:21
44,38:21
44,39:8
44,40:8
44,41:13
44,42:8
44,43:8
44,48:8
44,49:4
44,51:8
44,52:8
44,53:8
44,54:4
44,55:4
44,56:8
44,57:18
44,58:17
44,59:5
44,60:21
44,61:8
44,63:21
44,64:8
44,65:4
44,66:4
44,67:4
44,68:5
44,69:17
44,70:8
45,36:21
45,37:21
45,38:21
45,39:8
45,40:8
45,41:13
45,42:8
45,43:8
45,48:8
45,49:4
45,51:8
45,52:8
45,53:8
45,54:4
45,55:4
45,56:8
45,57:18
45,58:17
45,59:5
45,60:21
45,61:8
45,63:21
45,64:8
45,65:4
45,66:4
45,67:4
45,68:5
45,69:17
45,70:8
46,36:21
46,37:21
46,38:21
46,39:8
46,40:8
46,41:13
46,42:8
46,43:8
46,47:21
46,48:8
46,49:4
46,51:8
46,52:8
46,53:8
46,54:4
46,55:4
46,56:8
46,57:18
46,58:17
46,59:5
46,60:21
46,61:8
46,63:21
46,64:8
46,65:4
46,66:4
46,67:4
46,68:5
46,69:17
46,70:8
47,39:13
47,40:13
47,41:8
47,42:13
47,43:13
47,48:13
47,49:25
47,50:25
47,51:13
47,52:13
47,53:13
47,54:25
47,55:25
47,56:13
47,57:3
47,58:4
47,59:16
47,61:13
47,62:21
47,64:13
47,65:25
47,66:25
47,67:25
47,68:16
47,69:4
47,70:13
48,36:13
48,37:13
48,38:13
48,41:5
48,44:8
48,45:8
48,46:8
48,47:13
48,49:12
48,54:12
48,55:12
48,57:10
48,58:9
48,59:3
48,60:13
48,62:8
48,63:13
48,65:12
48,66:12
48,67:12
48,68:3
48,69:9
49,36:25
49,37:25
49,38:25
49,39:12
49,40:12
49,41:17
49,42:12
49,43:12
49,44:4
49,45:4
49,46:4
49,47:25
49,51:12
49,52:12
49,53:12
49,56:12
49,57:22
49,58:21
49,59:9
49,60:25
49,61:12
49,62:4
49,63:25
49,64:12
49,68:9
49,69:21
49,70:12
50,51:12
50,52:12
50,53:12
50,56:12
50,57:22
50,58:21
50,59:9
50,60:25
50,61:12
50,62:4
50,63:25
50,64:12
50,68:9
50,69:21
50,70:12
51,36:13
51,37:13
51,38:13
51,41:5
51,44:8
51,45:8
51,46:8
51,47:13
51,49:12
51,50:12
51,57:10
51,58:9
51,59:3
51,60:13
51,62:8
51,63:13
51,65:12
51,66:12
51,67:12
51,68:3
51,69:9
52,36:13
52,37:13
52,38:13
52,41:5
52,44:8
52,45:8
52,46:8
52,47:13
52,49:12
52,50:12
52,54:12
52,57:10
52,58:9
52,59:3
52,60:13
52,62:8
52,63:13
52,65:12
52,66:12
52,67:12
52,68:3
52,69:9
53,36:13
53,37:13
53,38:13
53,41:5
53,44:8
53,45:8
53,46:8
53,47:13
53,49:12
53,50:12
53,54:12
53,57:10
53,58:9
53,59:3
53,60:13
53,62:8
53,63:13
53,65:12
53,66:12
53,67:12
53,68:3
53,69:9
54,36:25
54,37:25
54,38:25
54,39:12
54,40:12
54,41:17
54,42:12
54,43:12
54,44:4
54,45:4
54,46:4
54,47:25
54,48:12
54,56:12
54,57:22
54,58:21
54,59:9
54,60:25
54,61:12
54,62:4
54,63:25
54,64:12
54,68:9
54,69:21
54,70:12
55,36:25
55,37:25
55,38:25
55,39:12
55,40:12
55,41:17
55,42:12
55,43:12
55,44:4
55,45:4
55,46:4
55,47:25
55,48:12
55,56:12
55,57:22
55,58:21
55,59:9
55,60:25
55,61:12
55,62:4
55,63:25
55,64:12
55,68:9
55,69:21
55,70:12
56,36:13
56,37:13
56,38:13
56,41:5
56,44:8
56,45:8
56,46:8
56,47:13
56,49:12
56,50:12
56,54:12
56,55:12
56,57:10
56,58:9
56,59:3
56,60:13
56,62:8
56,63:13
56,65:12
56,66:12
56,67:12
56,68:3
56,69:9
57,1:5
57,2:5
57,3:5
57,4:5
57,5:5
57,6:10
57,7:10
57,8:10
57,9:10
57,10:10
57,12:1
57,13:1
57,14:1
57,23:13
57,24:5
57,25:5
57,26:5
57,27:5
57,28:18
57,29:18
57,30:13
57,31:5
57,32:5
57,33:13
57,34:13
57,35:18
57,36:3
57,37:3
57,38:3
57,39:10
57,40:10
57,41:5
57,42:10
57,43:10
57,44:18
57,45:18
57,46:18
57,47:3
57,48:10
57,49:22
57,50:22
57,51:10
57,52:10
57,53:10
57,54:22
57,55:22
57,56:10
57,58:1
57,61:10
57,62:18
57,63:3
57,64:10
57,65:22
57,66:22
57,67:22
57,68:13
57,69:1
57,70:10
58,1:4
58,2:4
58,3:4
58,4:4
58,5:4
58,6:11
58,7:9
58,8:9
58,9:11
58,10:11
58,11:1
58,20:1
58,21:1
58,22:1
58,23:12
58,24:4
58,25:4
58,26:4
58,27:4
58,28:17
58,29:17
58,30:12
58,31:4
58,32:4
58,33:12
58,34:12
58,35:17
58,36:4
58,37:4
58,38:4
58,39:9
58,40:9
58,41:4
58,42:9
58,43:9
58,44:17
58,45:17
58,46:17
58,47:4
58,48:9
58,49:21
58,50:21
58,51:9
58,52:9
58,53:9
58,54:21
58,55:21
58,56:9
58,59:12
58,61:9
58,62:17
58,63:4
58,64:9
58,65:21
58,66:21
58,67:21
58,68:12
58,70:9
59,1:8
59,2:8
59,3:8
59,4:8
59,5:8
59,6:23
59,7:3
59,8:3
59,9:23
59,10:23
59,11:13
59,12:12
59,13:12
59,14:12
59,20:13
59,21:13
59,22:13
59,24:8
59,25:8
59,26:8
59,27:8
59,28:5
59,29:5
59,31:8
59,32:8
59,35:5
59,36:16
59,37:16
59,38:16
59,39:3
59,40:3
59,41:8
59,42:3
59,43:3
59,44:5
59,45:5
59,46:5
59,47:16
59,48:3
59,49:9
59,50:9
59,51:3
59,52:3
59,53:3
59,54:9
59,55:9
59,56:3
59,60:16
59,61:3
59,62:5
59,63:16
59,64:3
59,65:9
59,66:9
59,67:9
59,69:12
59,70:3
60,39:13
60,40:13
60,41:8
60,42:13
60,43:13
60,44:21
60,45:21
60,46:21
60,48:13
60,49:25
60,50:25
60,51:13
60,52:13
60,53:13
60,54:25
60,55:25
60,56:13
60,61:13
60,62:21
60,64:13
60,65:25
60,66:25
60,67:25
60,68:16
60,69:4
60,70:13
61,36:13
61,37:13
61,38:13
61,41:5
61,44:8
61,45:8
61,46:8
61,47:13
61,49:12
61,50:12
61,54:12
61,55:12
61,57:10
61,58:9
61,59:3
61,60:13
61,62:8
61,63:13
61,65:12
61,66:12
61,67:12
61,68:3
61,69:9
62,36:21
62,37:21
62,38:21
62,39:8
62,40:8
62,41:13
62,42:8
62,43:8
62,47:21
62,48:8
62,49:4
62,50:4
62,51:8
62,52:8
62,53:8
62,54:4
62,55:4
62,56:8
62,57:18
62,58:17
62,59:5
62,60:21
62,61:8
62,63:21
62,68:5
62,69:17
62,70:8
63,39:13
63,40:13
63,41:8
63,42:13
63,43:13
63,44:21
63,45:21
63,46:21
63,48:13
63,49:25
63,50:25
63,51:13
63,52:13
63,53:13
63,54:25
63,55:25
63,56:13
63,57:3
63,58:4
63,59:16
63,61:13
63,64:13
63,68:16
63,69:4
63,70:13
64,36:13
64,37:13
64,38:13
64,41:5
64,44:8
64,45:8
64,46:8
64,47:13
64,49:12
64,50:12
64,54:12
64,55:12
64,57:10
64,58:9
64,59:3
64,60:13
64,65:12
64,66:12
64,67:12
64,68:3
64,69:9
65,36:25
65,37:25
65,38:25
65,39:12
65,40:12
65,41:17
65,42:12
65,43:12
65,44:4
65,45:4
65,46:4
65,47:25
65,48:12
65,51:12
65,52:12
65,53:12
65,56:12
65,57:22
65,58:21
65,59:9
65,60:25
65,68:9
65,69:21
65,70:12
66,36:25
66,37:25
66,38:25
66,39:12
66,40:12
66,41:17
66,42:12
66,43:12
66,44:4
66,45:4
66,46:4
66,47:25
66,48:12
66,51:12
66,52:12
66,53:12
66,56:12
66,57:22
66,58:21
66,59:9
66,60:25
66,61:12
66,68:9
66,69:21
66,70:12
67,36:25
67,37:25
67,38:25
67,39:12
67,40:12
67,41:17
67,42:12
67,43:12
67,44:4
67,45:4
67,46:4
67,47:25
67,48:12
67,51:12
67,52:12
67,53:12
67,56:12
67,57:22
67,58:21
67,59:9
67,60:25
67,61:12
67,68:9
67,69:21
67,70:12
68,4:8
68,5:8
68,6:23
68,7:3
68,8:3
68,9:23
68,10:23
68,11:13
68,12:12
68,13:12
68,14:12
68,15:8
68,16:23
68,17:13
68,18:3
68,19:13
68,20:13
68,21:13
68,22:13
68,24:8
68,25:8
68,26:8
68,27:8
68,28:5
68,29:5
68,31:8
68,32:8
68,35:5
68,36:16
68,37:16
68,38:16
68,39:3
68,40:3
68,41:8
68,42:3
68,43:3
68,44:5
68,45:5
68,46:5
68,47:16
68,48:3
68,49:9
68,50:9
68,51:3
68,52:3
68,53:3
68,54:9
68,55:9
68,56:3
68,57:13
68,58:12
68,60:16
68,61:3
68,62:5
68,63:16
68,64:3
68,65:9
68,66:9
68,67:9
68,69:12
68,70:3
69,2:4
69,3:4
69,4:4
69,5:4
69,6:11
69,7:9
69,8:9
69,9:11
69,10:11
69,11:1
69,15:4
69,16:11
69,17:1
69,18:9
69,19:1
69,20:1
69,21:1
69,22:1
69,23:12
69,24:4
69,25:4
69,26:4
69,27:4
69,28:17
69,29:17
69,30:12
69,31:4
69,32:4
69,33:12
69,34:12
69,35:17
69,36:4
69,37:4
69,38:4
69,39:9
69,40:9
69,41:4
69,42:9
69,43:9
69,44:17
69,45:17
69,46:17
69,47:4
69,48:9
69,49:21
69,50:21
69,51:9
69,52:9
69,53:9
69,54:21
69,55:21
69,56:9
69,57:1
69,59:12
69,60:4
69,61:9
69,62:17
69,63:4
69,64:9
69,65:21
69,66:21
69,67:21
69,68:12
69,70:9
70,2:5
70,3:5
70,4:5
70,5:5
70,6:20
70,9:20
70,10:20
70,11:10
70,12:9
70,13:9
70,14:9
70,15:5
70,16:20
70,17:10
70,19:10
70,20:10
70,21:10
70,22:10
70,23:3
70,24:5
70,25:5
70,26:5
70,27:5
70,28:8
70,29:8
70,30:3
70,31:5
70,32:5
70,33:3
70,34:3
70,35:8
70,36:13
70,37:13
70,38:13
70,41:5
70,44:8
70,45:8
70,46:8
70,47:13
70,49:12
70,50:12
70,54:12
70,55:12
70,57:10
70,58:9
70,59:3
70,60:13
70,62:8
70,63:13
70,65:12
70,66:12
70,67:12
70,68:3
70,69:9

<setup times backward>
1,18:5
1,30:8
1,59:8
2,18:5
2,30:8
2,59:8
2,70:5
3,18:5
3,30:8
3,59:8
3,70:5
4,18:5
4,30:8
4,59:8
4,68:8
4,70:5
5,7:5
5,18:5
5,59:8
5,68:8
5,70:5
6,1:15
6,2:15
6,3:15
6,4:15
6,5:15
6,7:20
6,11:10
6,15:15
6,17:10
6,18:20
6,19:10
6,20:10
6,21:10
6,22:10
6,24:15
6,30:23
6,41:15
6,57:10
6,58:11
6,59:23
6,68:23
6,69:11
6,70:20
7,30:3
7,59:3
7,68:3
8,30:3
8,59:3
8,68:3
9,1:15
9,2:15
9,3:15
9,4:15
9,5:15
9,7:20
9,8:20
9,15:15
9,17:10
9,18:20
9,19:10
9,20:10
9,21:10
9,22:10
9,24:15
9,30:23
9,41:15
9,57:10
9,58:11
9,59:23
9,68:23
9,69:11
9,70:20
10,1:15
10,2:15
10,3:15
10,4:15
10,5:15
10,7:20
10,8:20
10,15:15
10,17:10
10,18:20
10,19:10
10,20:10
10,21:10
10,22:10
10,24:15
10,30:23
10,41:15
10,57:10
10,58:11
10,59:23
10,68:23
10,69:11
10,70:20
11,1:5
11,2:5
11,3:5
11,4:5
11,5:5
11,7:10
11,8:10
11,15:5
11,18:10
11,24:5
11,30:13
11,41:5
11,58:1
11,59:13
11,68:13
11,69:1
11,70:10
12,1:4
12,2:4
12,3:4
12,4:4
12,5:4
12,7:9
12,8:9
12,15:4
12,18:9
12,24:4
12,30:12
12,41:4
12,59:12
12,68:12
12,70:9
13,1:4
13,2:4
13,3:4
13,4:4
13,5:4
13,7:9
13,8:9
13,15:4
13,18:9
13,24:4
13,30:12
13,41:4
13,59:12
13,68:12
13,70:9
14,1:4
14,2:4
14,3:4
14,4:4
14,5:4
14,7:9
14,8:9
14,15:4
14,18:9
14,24:4
14,30:12
14,41:4
14,59:12
14,68:12
14,70:9
15,7:5
15,8:5
15,30:8
15,68:8
15,70:5
16,1:15
16,2:15
16,3:15
16,4:15
16,5:15
16,7:20
16,8:20
16,11:10
16,12:11
16,13:11
16,14:11
16,15:15
16,24:15
16,30:23
16,41:15
16,68:23
16,69:11
16,70:20
17,1:5
17,2:5
17,3:5
17,4:5
17,5:5
17,7:10
17,8:10
17,12:1
17,13:1
17,14:1
17,15:5
17,18:10
17,24:5
17,30:13
17,41:5
17,68:13
17,69:1
17,70:10
18,30:3
18,68:3
19,1:5
19,2:5
19,3:5
19,4:5
19,5:5
19,7:10
19,8:10
19,12:1
19,13:1
19,14:1
19,15:5
19,18:10
19,24:5
19,30:13
19,41:5
19,68:13
19,69:1
19,70:10
20,1:5
20,2:5
20,3:5
20,4:5
20,5:5
20,7:10
20,8:10
20,12:1
20,13:1
20,14:1
20,15:5
20,18:10
20,24:5
20,30:13
20,41:5
20,58:1
20,59:13
20,68:13
20,69:1
20,70:10
21,1:5
21,2:5
21,3:5
21,4:5
21,5:5
21,7:10
21,8:10
21,12:1
21,13:1
21,14:1
21,15:5
21,18:10
21,24:5
21,30:13
21,41:5
21,58:1
21,59:13
21,68:13
21,69:1
21,70:10
22,1:5
22,2:5
22,3:5
22,4:5
22,5:5
22,7:10
22,8:10
22,12:1
22,13:1
22,14:1
22,15:5
22,18:10
22,24:5
22,30:13
22,41:5
22,58:1
22,59:13
22,68:13
22,69:1
22,70:10
24,7:5
24,8:5
24,18:5
24,23:8
24,30:8
24,33:8
24,34:8
24,59:8
24,68:8
24,70:5
25,7:5
25,8:5
25,18:5
25,23:8
25,30:8
25,33:8
25,34:8
25,59:8
25,68:8
25,70:5
26,7:5
26,8:5
26,18:5
26,23:8
26,28:13
26,29:13
26,30:8
26,33:8
26,34:8
26,59:8
26,68:8
26,70:5
27,7:5
27,8:5
27,18:5
27,23:8
27,28:13
27,29:13
27,30:8
27,33:8
27,34:8
27,59:8
27,68:8
27,70:5
30,28:5
30,29:5
31,7:5
31,8:5
31,18:5
31,23:8
31,28:13
31,29:13
31,30:8
31,33:8
31,34:8
31,59:8
31,68:8
31,70:5
32,7:5
32,8:5
32,18:5
32,23:8
32,28:13
32,29:13
32,30:8
32,33:8
32,34:8
32,59:8
32,68:8
32,70:5
33,28:5
33,29:5
34,28:5
34,29:5
36,1:8
36,2:8
36,3:8
36,4:8
36,5:8
36,7:13
36,8:13
36,11:3
36,12:4
36,13:4
36,14:4
36,15:8
36,17:3
36,18:13
36,19:3
36,20:3
36,21:3
36,22:3
36,23:16
36,24:8
36,25:8
36,26:8
36,27:8
36,28:21
36,29:21
36,30:16
36,31:8
36,32:8
36,33:16
36,34:16
36,35:21
36,41:8
36,44:21
36,45:21
36,46:21
36,48:13
36,49:25
36,51:13
36,52:13
36,53:13
36,54:25
36,55:25
36,56:13
36,57:3
36,58:4
36,59:16
36,61:13
36,62:21
36,64:13
36,65:25
36,66:25
36,67:25
36,68:16
36,69:4
36,70:13
37,1:8
37,2:8
37,3:8
37,4:8
37,5:8
37,7:13
37,8:13
37,11:3
37,12:4
37,13:4
37,14:4
37,15:8
37,17:3
37,18:13
37,19:3
37,20:3
37,21:3
37,22:3
37,23:16
37,24:8
37,25:8
37,26:8
37,27:8
37,28:21
37,29:21
37,30:16
37,31:8
37,32:8
37,33:16
37,34:16
37,35:21
37,41:8
37,44:21
37,45:21
37,46:21
37,48:13
37,49:25
37,51:13
37,52:13
37,53:13
37,54:25
37,55:25
37,56:13
37,57:3
37,58:4
37,59:16
37,61:13
37,62:21
37,64:13
37,65:25
37,66:25
37,67:25
37,68:16
37,69:4
37,70:13
38,1:8
38,2:8
38,3:8
38,4:8
38,5:8
38,7:13
38,8:13
38,11:3
38,12:4
38,13:4
38,14:4
38,15:8
38,17:3
38,18:13
38,19:3
38,20:3
38,21:3
38,22:3
38,23:16
38,24:8
38,25:8
38,26:8
38,27:8
38,28:21
38,29:21
38,30:16
38,31:8
38,32:8
38,33:16
38,34:16
38,35:21
38,41:8
38,44:21
38,45:21
38,46:21
38,48:13
38,49:25
38,51:13
38,52:13
38,53:13
38,54:25
38,55:25
38,56:13
38,57:3
38,58:4
38,59:16
38,61:13
38,62:21
38,64:13
38,65:25
38,66:25
38,67:25
38,68:16
38,69:4
38,70:13
39,23:3
39,28:8
39,29:8
39,30:3
39,33:3
39,34:3
39,35:8
39,44:8
39,45:8
39,46:8
39,49:12
39,54:12
39,55:12
39,59:3
39,62:8
39,65:12
39,66:12
39,67:12
39,68:3
40,23:3
40,28:8
40,29:8
40,30:3
40,33:3
40,34:3
40,35:8
40,44:8
40,45:8
40,46:8
40,49:12
40,54:12
40,55:12
40,59:3
40,62:8
40,65:12
40,66:12
40,67:12
40,68:3
41,7:5
41,8:5
41,18:5
41,23:8
41,28:13
41,29:13
41,30:8
41,33:8
41,34:8
41,35:13
41,39:5
41,40:5
41,44:13
41,45:13
41,46:13
41,48:5
41,49:17
41,51:5
41,52:5
41,53:5
41,54:17
41,55:17
41,56:5
41,59:8
41,61:5
41,62:13
41,64:5
41,65:17
41,66:17
41,67:17
41,68:8
41,70:5
42,23:3
42,28:8
42,29:8
42,30:3
42,33:3
42,34:3
42,35:8
42,44:8
42,45:8
42,46:8
42,49:12
42,54:12
42,55:12
42,59:3
42,62:8
42,65:12
42,66:12
42,67:12
42,68:3
43,23:3
43,28:8
43,29:8
43,30:3
43,33:3
43,34:3
43,35:8
43,44:8
43,45:8
43,46:8
43,49:12
43,54:12
43,55:12
43,59:3
43,62:8
43,65:12
43,66:12
43,67:12
43,68:3
44,49:4
44,54:4
44,55:4
44,65:4
44,66:4
44,67:4
45,49:4
45,54:4
45,55:4
45,65:4
45,66:4
45,67:4
46,49:4
46,54:4
46,55:4
46,65:4
46,66:4
46,67:4
47,1:8
47,2:8
47,3:8
47,4:8
47,5:8
47,7:13
47,8:13
47,11:3
47,12:4
47,13:4
47,14:4
47,15:8
47,17:3
47,18:13
47,19:3
47,20:3
47,21:3
47,22:3
47,23:16
47,24:8
47,25:8
47,26:8
47,27:8
47,28:21
47,29:21
47,30:16
47,31:8
47,32:8
47,33:16
47,34:16
47,35:21
47,39:13
47,40:13
47,41:8
47,42:13
47,43:13
47,44:21
47,45:21
47,46:21
47,48:13
47,49:25
47,51:13
47,52:13
47,53:13
47,54:25
47,55:25
47,56:13
47,57:3
47,58:4
47,59:16
47,61:13
47,62:21
47,64:13
47,65:25
47,66:25
47,67:25
47,68:16
47,69:4
47,70:13
48,23:3
48,28:8
48,29:8
48,30:3
48,33:3
48,34:3
48,35:8
48,44:8
48,45:8
48,46:8
48,54:12
48,55:12
48,59:3
48,62:8
48,65:12
48,66:12
48,67:12
48,68:3
51,23:3
51,28:8
51,29:8
51,30:3
51,33:3
51,34:3
51,35:8
51,44:8
51,45:8
51,46:8
51,49:12
51,50:12
51,59:3
51,62:8
51,65:12
51,66:12
51,67:12
51,68:3
52,23:3
52,28:8
52,29:8
52,30:3
52,33:3
52,34:3
52,35:8
52,44:8
52,45:8
52,46:8
52,49:12
52,50:12
52,59:3
52,62:8
52,65:12
52,66:12
52,67:12
52,68:3
53,23:3
53,28:8
53,29:8
53,30:3
53,33:3
53,34:3
53,35:8
53,44:8
53,45:8
53,46:8
53,49:12
53,50:12
53,59:3
53,62:8
53,65:12
53,66:12
53,67:12
53,68:3
56,23:3
56,28:8
56,29:8
56,30:3
56,33:3
56,34:3
56,35:8
56,44:8
56,45:8
56,46:8
56,49:12
56,50:12
56,54:12
56,55:12
56,59:3
56,62:8
56,65:12
56,66:12
56,67:12
56,68:3
57,1:5
57,2:5
57,3:5
57,4:5
57,5:5
57,7:10
57,8:10
57,12:1
57,13:1
57,14:1
57,15:5
57,18:10
57,23:13
57,24:5
57,25:5
57,26:5
57,27:5
57,28:18
57,29:18
57,30:13
57,31:5
57,32:5
57,33:13
57,34:13
57,35:18
57,39:10
57,40:10
57,41:5
57,42:10
57,43:10
57,44:18
57,45:18
57,46:18
57,48:10
57,49:22
57,50:22
57,51:10
57,52:10
57,53:10
57,54:22
57,55:22
57,56:10
57,61:10
57,62:18
57,64:10
57,65:22
57,66:22
57,67:22
57,68:13
57,69:1
57,70:10
58,1:4
58,2:4
58,3:4
58,4:4
58,5:4
58,7:9
58,8:9
58,15:4
58,18:9
58,23:12
58,24:4
58,25:4
58,26:4
58,27:4
58,28:17
58,29:17
58,30:12
58,31:4
58,32:4
58,33:12
58,34:12
58,35:17
58,39:9
58,40:9
58,41:4
58,42:9
58,43:9
58,44:17
58,45:17
58,46:17
58,48:9
58,49:21
58,50:21
58,51:9
58,52:9
58,53:9
58,54:21
58,55:21
58,56:9
58,61:9
58,62:17
58,64:9
58,65:21
58,66:21
58,67:21
58,68:12
58,70:9
59,28:5
59,29:5
59,35:5
59,44:5
59,45:5
59,46:5
59,49:9
59,50:9
59,54:9
59,55:9
59,62:5
59,65:9
59,66:9
59,67:9
60,1:8
60,2:8
60,3:8
60,4:8
60,5:8
60,7:13
60,8:13
60,11:3
60,12:4
60,13:4
60,14:4
60,15:8
60,17:3
60,18:13
60,19:3
60,20:3
60,21:3
60,22:3
60,23:16
60,24:8
60,25:8
60,26:8
60,27:8
60,28:21
60,29:21
60,30:16
60,31:8
60,32:8
60,33:16
60,34:16
60,35:21
60,39:13
60,40:13
60,41:8
60,42:13
60,43:13
60,44:21
60,45:21
60,46:21
60,48:13
60,49:25
60,50:25
60,51:13
60,52:13
60,53:13
60,54:25
60,55:25
60,56:13
60,57:3
60,58:4
60,59:16
60,61:13
60,62:21
60,64:13
60,65:25
60,66:25
60,67:25
60,68:16
60,69:4
60,70:13
61,23:3
61,28:8
61,29:8
61,30:3
61,33:3
61,34:3
61,35:8
61,44:8
61,45:8
61,46:8
61,49:12
61,50:12
61,54:12
61,55:12
61,59:3
61,62:8
61,66:12
61,67:12
61,68:3
62,49:4
62,50:4
62,54:4
62,55:4
63,1:8
63,2:8
63,3:8
63,4:8
63,5:8
63,7:13
63,8:13
63,11:3
63,12:4
63,13:4
63,14:4
63,15:8
63,17:3
63,18:13
63,19:3
63,20:3
63,21:3
63,22:3
63,23:16
63,24:8
63,25:8
63,26:8
63,27:8
63,28:21
63,29:21
63,30:16
63,31:8
63,32:8
63,33:16
63,34:16
63,35:21
63,39:13
63,40:13
63,41:8
63,42:13
63,43:13
63,44:21
63,45:21
63,46:21
63,48:13
63,49:25
63,50:25
63,51:13
63,52:13
63,53:13
63,54:25
63,55:25
63,56:13
63,57:3
63,58:4
63,59:16
63,61:13
63,62:21
63,68:16
63,69:4
63,70:13
64,23:3
64,28:8
64,29:8
64,30:3
64,33:3
64,34:3
64,35:8
64,44:8
64,45:8
64,46:8
64,49:12
64,50:12
64,54:12
64,55:12
64,59:3
64,62:8
64,68:3
68,28:5
68,29:5
68,35:5
68,44:5
68,45:5
68,46:5
68,49:9
68,50:9
68,54:9
68,55:9
68,62:5
68,65:9
68,66:9
68,67:9
69,1:4
69,2:4
69,3:4
69,4:4
69,5:4
69,7:9
69,8:9
69,15:4
69,18:9
69,23:12
69,24:4
69,25:4
69,26:4
69,27:4
69,28:17
69,29:17
69,30:12
69,31:4
69,32:4
69,33:12
69,34:12
69,35:17
69,39:9
69,40:9
69,41:4
69,42:9
69,43:9
69,44:17
69,45:17
69,46:17
69,48:9
69,49:21
69,50:21
69,51:9
69,52:9
69,53:9
69,54:21
69,55:21
69,56:9
69,59:12
69,61:9
69,62:17
69,64:9
69,65:21
69,66:21
69,67:21
69,68:12
69,70:9
70,23:3
70,28:8
70,29:8
70,30:3
70,33:3
70,34:3
70,35:8
70,44:8
70,45:8
70,46:8
70,49:12
70,50:12
70,54:12
70,55:12
70,59:3
70,62:8
70,65:12
70,66:12
70,67:12
70,68:3

<end>

<optimal SALBP-1 value>
11


<rand seed>
467321153

<Lower Bounds>
Lm1=11
Lms1=11
Lm2=0
Lm3=4
Lm4=11
Best=11

<Optimal Stations (Iterations: 10)>
14
